r = [
0,22,43,23,8,46,11,40,36,12,4,0
];
p = [
0,11,24,19,14,4,3,3,1,18,4,0
];
e = [
0,14,5,9,12,3,4,4,11,17,6,0
];
d = [
0,72,96,74,55,96,60,89,84,64,56,98
];
d_bar = [
0,73,98,76,56,97,61,90,85,66,57,98
];
w = [
0,14,2.5,4.5,12,3,4,4,11,8.5,6,0
];
